(declare-fun var0 () String)
(assert (RegexIn var0 (RegexConcat (RegexStar (RegexUnion (Str2Reg "iii") (Str2Reg "jj"))) (RegexConcat (RegexPlus (RegexStar (Str2Reg "hhh"))) (RegexConcat (RegexPlus (RegexUnion (Str2Reg "fff") (Str2Reg "g"))) (RegexConcat (RegexPlus (RegexUnion (Str2Reg "d") (Str2Reg "eee"))) (RegexConcat (RegexPlus (RegexUnion (Str2Reg "b") (Str2Reg "ccc"))) (RegexConcat (RegexUnion (RegexUnion (Str2Reg "888") (Str2Reg "99")) (RegexPlus (Str2Reg "aaa"))) (RegexConcat (RegexStar (RegexStar (Str2Reg "7"))) (RegexConcat (RegexPlus (RegexStar (Str2Reg "666"))) (RegexConcat (RegexUnion (RegexPlus (Str2Reg "444")) (RegexPlus (Str2Reg "55"))) (RegexConcat (RegexUnion (RegexPlus (Str2Reg "2")) (RegexStar (Str2Reg "3"))) (RegexPlus (RegexUnion (Str2Reg "00") (Str2Reg "11")))))))))))))))
(check-sat)